************************************************************************
file with basedata            : mm24_.bas
initial value random generator: 30193
************************************************************************
projects                      :  1
jobs (incl. supersource/sink ):  12
horizon                       :  70
RESOURCES
  - renewable                 :  2   R
  - nonrenewable              :  2   N
  - doubly constrained        :  0   D
************************************************************************
PROJECT INFORMATION:
pronr.  #jobs rel.date duedate tardcost  MPM-Time
    1     10      0        8        9        8
************************************************************************
PRECEDENCE RELATIONS:
jobnr.    #modes  #successors   successors
   1        1          3           2   3   4
   2        3          2           8   9
   3        3          2           9  10
   4        3          3           5   6  11
   5        3          1           7
   6        3          1           8
   7        3          2           9  10
   8        3          1          10
   9        3          1          12
  10        3          1          12
  11        3          1          12
  12        1          0        
************************************************************************
REQUESTS/DURATIONS:
jobnr. mode duration  R 1  R 2  N 1  N 2
------------------------------------------------------------------------
  1      1     0       0    0    0    0
  2      1     2       5    0    6    9
         2    10       4    0    6    4
         3    10       3    0    6    5
  3      1     4       9    0    8    5
         2     8       0    7    7    4
         3     9       0    7    6    3
  4      1     1       0    5    7    8
         2     3       7    0    6    8
         3     5       0    3    5    6
  5      1     2       0    5    5    8
         2     2       0    8    5    7
         3     8       9    0    4    4
  6      1     4       7    0    8    8
         2     6       7    0    8    6
         3     7       7    0    8    5
  7      1     1       0   10    8    8
         2     3       9    0    5    8
         3     8       5    0    4    7
  8      1     1       7    0    7    8
         2     1       0    5    8    6
         3     3       0    4    4    6
  9      1     3       0   10    6    8
         2     4       0   10    2    6
         3     4      10    0    3    8
 10      1     2       0    2    6    8
         2     7       9    0    5    6
         3     9       6    0    4    5
 11      1     1       0    9   10    6
         2     4       7    0   10    6
         3     7       4    0    9    6
 12      1     0       0    0    0    0
************************************************************************
RESOURCEAVAILABILITIES:
  R 1  R 2  N 1  N 2
   25   17   72   76
************************************************************************
MAXIMAL LAGS:
from  to  type  delay
    1   12   ES      0
    1    2   ES      0
    2   12   ES      0
    1    3   ES      0
    3   12   ES      0
    1    4   ES      0
    4   12   ES      0
    1    5   ES      0
    5   12   ES      0
    1    6   ES      0
    6   12   ES      0
    1    7   ES      0
    7   12   ES      0
    1    8   ES      0
    8   12   ES      0
    1    9   ES      0
    9   12   ES      0
    1   10   ES      0
   10   12   ES      0
    1   11   ES      0
   11   12   ES      0
    1   12   ES      0
    2    8   SS      4
    2    8   SE      8
    2    8   ES     -4
    2    8   EE     11
    2    9   SS     -4
    2    9   SE      6
    2    9   ES      5
    2    9   EE      6
    3    9   SS     -7
    3    9   SE      0
    3    9   ES      8
    3    9   EE      0
    3   10   SS     -1
    3   10   SE      6
    3   10   ES      8
    3   10   EE    -10
    4    5   SS      4
    4    5   SE     -4
    5    4   SE      0
    4    5   ES      0
    4    5   EE     -5
    4    6   SS      4
    4    6   SE      0
    4    6   ES     -1
    4    6   EE     -1
    4   11   SS      3
    4   11   SE      3
    4   11   ES      7
    4   11   EE    -12
    5    7   SS      4
    5    7   SE     -8
    5    7   ES      2
    5    7   EE     -7
    6    8   SS     -5
    6    8   SE    -10
    6    8   ES      4
    6    8   EE      8
    7    9   SS     -4
    7    9   SE     -6
    7    9   ES     -8
    7    9   EE     -7
    7   10   SS     -7
    7   10   SE     -1
    7   10   ES      7
    7   10   EE     10
    8   10   SS     -9
    8   10   SE      9
    8   10   ES     -5
    8   10   EE      1
************************************************************************
